NAME          
ROWS
 N  OBJ
 L  c1
 L  c2
 L  c3
 L  c4
 L  c5
COLUMNS
    MARKER    'MARKER'                 'INTORG'
    x[1]      c1        614
    x[1]      c2        126
    x[1]      c3        425
    x[1]      c4        309
    x[1]      c5        66
    x[1]      OBJ       -43
    x[2]      c1        827
    x[2]      c2        473
    x[2]      c3        578
    x[2]      c4        301
    x[2]      c5        637
    x[2]      OBJ       -33
    x[3]      c1        290
    x[3]      c2        312
    x[3]      c3        846
    x[3]      c4        70
    x[3]      c5        255
    x[3]      OBJ       -222
    x[4]      c1        914
    x[4]      c2        288
    x[4]      c3        729
    x[4]      c4        132
    x[4]      c5        372
    x[4]      OBJ       -876
    x[5]      c1        721
    x[5]      c2        736
    x[5]      c3        932
    x[5]      c4        234
    x[5]      c5        241
    x[5]      OBJ       -761
    x[6]      c1        992
    x[6]      c2        469
    x[6]      c3        520
    x[6]      c4        173
    x[6]      c5        923
    x[6]      OBJ       -894
    x[7]      c1        665
    x[7]      c2        898
    x[7]      c3        488
    x[7]      c4        433
    x[7]      c5        656
    x[7]      OBJ       -12
    x[8]      c1        391
    x[8]      c2        251
    x[8]      c3        607
    x[8]      c4        684
    x[8]      c5        523
    x[8]      OBJ       -605
    x[9]      c1        608
    x[9]      c2        110
    x[9]      c3        332
    x[9]      c4        925
    x[9]      c5        403
    x[9]      OBJ       -958
    x[10]     c1        140
    x[10]     c2        909
    x[10]     c3        627
    x[10]     c4        171
    x[10]     c5        861
    x[10]     OBJ       -802
    x[11]     c1        152
    x[11]     c2        427
    x[11]     c3        736
    x[11]     c4        792
    x[11]     c5        331
    x[11]     OBJ       -833
    x[12]     c1        219
    x[12]     c2        891
    x[12]     c3        286
    x[12]     c4        132
    x[12]     c5        370
    x[12]     OBJ       -360
    x[13]     c1        931
    x[13]     c2        9
    x[13]     c3        430
    x[13]     c4        391
    x[13]     c5        889
    x[13]     OBJ       -776
    x[14]     c1        428
    x[14]     c2        618
    x[14]     c3        56
    x[14]     c4        371
    x[14]     c5        111
    x[14]     OBJ       -773
    x[15]     c1        719
    x[15]     c2        96
    x[15]     c3        28
    x[15]     c4        52
    x[15]     c5        617
    x[15]     OBJ       -405
RHS
    rhs       c1        4306
    rhs       c2        3306
    rhs       c3        3810
    rhs       c4        2585
    rhs       c5        3628
RANGES
BOUNDS
 BV bounds    x[1]
 BV bounds    x[2]
 BV bounds    x[3]
 BV bounds    x[4]
 BV bounds    x[5]
 BV bounds    x[6]
 BV bounds    x[7]
 BV bounds    x[8]
 BV bounds    x[9]
 BV bounds    x[10]
 BV bounds    x[11]
 BV bounds    x[12]
 BV bounds    x[13]
 BV bounds    x[14]
 BV bounds    x[15]
ENDATA
